15
0 177 429 541 561 578 204 172 255 383 29 221 604 875 164
177 0 410 312 59 544 252 48 99 103 62 287 176 51 147
429 410 0 787 454 678 257 143 707 297 6 163 593 337 283
541 312 787 0 569 362 473 288 133 4 213 541 313 155 174
561 59 454 569 0 428 3 106 582 612 141 178 44 44 93
578 544 678 362 428 0 50 511 101 406 45 26 250 5 137
204 252 257 473 3 50 0 65 418 307 2 312 879 660 77
172 48 143 288 106 511 65 0 145 207 101 14 130 57 290
255 99 707 133 582 101 418 145 0 24 60 432 65 394 194
383 103 297 4 612 406 307 207 24 0 405 105 910 157 637
29 62 6 213 141 45 2 101 60 405 0 38 10 160 166
221 287 163 541 178 26 312 14 432 105 38 0 234 27 240
604 176 593 313 44 250 879 130 65 910 10 234 0 42 242
875 51 337 155 44 5 660 57 394 157 160 27 42 0 371
164 147 283 174 93 137 77 290 194 637 166 240 242 371 0